p cnf 65 172
1 -43 -39 0
-1 43 -39 0
1 43 -40 0
-1 -43 -40 0
20 -43 -41 0
-20 43 -41 0
20 43 -42 0
-20 -43 -42 0
2 -44 -39 0
-2 44 -39 0
2 44 -40 0
-2 -44 -40 0
21 -44 -41 0
-21 44 -41 0
21 44 -42 0
-21 -44 -42 0
3 -39 0
3 -40 0
39 -39 0
40 -40 0
22 -41 0
22 -42 0
41 -41 0
42 -42 0
4 -39 0
4 -40 0
39 -39 0
40 -40 0
23 -41 0
23 -42 0
41 -41 0
42 -42 0
5 -39 0
5 -40 0
39 -39 0
40 -40 0
24 -41 0
24 -42 0
41 -41 0
42 -42 0
6 -45 -39 0
-6 45 -39 0
6 45 -40 0
-6 -45 -40 0
25 -45 -41 0
-25 45 -41 0
25 45 -42 0
-25 -45 -42 0
7 -46 -39 0
-7 46 -39 0
7 46 -40 0
-7 -46 -40 0
26 -46 -41 0
-26 46 -41 0
26 46 -42 0
-26 -46 -42 0
8 -47 -39 0
-8 47 -39 0
8 47 -40 0
-8 -47 -40 0
27 -47 -41 0
-27 47 -41 0
27 47 -42 0
-27 -47 -42 0
9 -39 0
9 -40 0
39 -39 0
40 -40 0
28 -41 0
28 -42 0
41 -41 0
42 -42 0
10 -48 -39 0
-10 48 -39 0
10 48 -40 0
-10 -48 -40 0
29 -48 -41 0
-29 48 -41 0
29 48 -42 0
-29 -48 -42 0
11 -49 -39 0
-11 49 -39 0
11 49 -40 0
-11 -49 -40 0
30 -49 -41 0
-30 49 -41 0
30 49 -42 0
-30 -49 -42 0
12 -50 -39 0
-12 50 -39 0
12 50 -40 0
-12 -50 -40 0
31 -50 -41 0
-31 50 -41 0
31 50 -42 0
-31 -50 -42 0
13 -51 -39 0
-13 51 -39 0
13 51 -40 0
-13 -51 -40 0
32 -51 -41 0
-32 51 -41 0
32 51 -42 0
-32 -51 -42 0
14 -39 0
14 -40 0
39 -39 0
40 -40 0
33 -41 0
33 -42 0
41 -41 0
42 -42 0
15 -52 -39 0
-15 52 -39 0
15 52 -40 0
-15 -52 -40 0
34 -52 -41 0
-34 52 -41 0
34 52 -42 0
-34 -52 -42 0
16 -53 -39 0
-16 53 -39 0
16 53 -40 0
-16 -53 -40 0
35 -53 -41 0
-35 53 -41 0
35 53 -42 0
-35 -53 -42 0
17 -39 0
17 -40 0
39 -39 0
40 -40 0
36 -41 0
36 -42 0
41 -41 0
42 -42 0
18 -54 -39 0
-18 54 -39 0
18 54 -40 0
-18 -54 -40 0
37 -54 -41 0
-37 54 -41 0
37 54 -42 0
-37 -54 -42 0
19 -55 -39 0
-19 55 -39 0
19 55 -40 0
-19 -55 -40 0
38 -55 -41 0
-38 55 -41 0
38 55 -42 0
-38 -55 -42 0
-62 39 0
62 -39 0
-63 40 0
62 -40 0
-62 -39 0
-63 -40 0
-64 39 62 0
64 -39 0
64 -62 0
-65 40 63 0
65 -40 0
65 -63 0
-64 -41 0
-65 -42 0
64 0
65 0
-39 42 0
-40 0
-41 0
-42 39 0
